
Gurobi 10.0.0 (win64) logging started Mon Mar 13 20:36:29 2023

Set parameter LogFile to value "logFiles/N-1L-90D/N-1L-7U-20F-18V-90D-a-charterout.log"
Gurobi Optimizer version 10.0.0 build v10.0.0rc2 (win64)

CPU model: Intel(R) Core(TM) i5-10210U CPU @ 1.60GHz, instruction set [SSE2|AVX|AVX2]
Thread count: 4 physical cores, 8 logical processors, using up to 8 threads

Optimize a model with 34266 rows, 198135 columns and 1876859 nonzeros
Model fingerprint: 0xcd915946
Variable types: 744 continuous, 197391 integer (197391 binary)
Coefficient statistics:
  Matrix range     [1e+00, 2e+05]
  Objective range  [4e+01, 2e+07]
  Bounds range     [1e+00, 1e+00]
  RHS range        [1e+00, 2e+06]
Presolve removed 26446 rows and 50762 columns
Presolve time: 4.05s
Presolved: 7820 rows, 147373 columns, 988961 nonzeros
Variable types: 758 continuous, 146615 integer (146615 binary)
Deterministic concurrent LP optimizer: primal simplex, dual simplex, and barrier
Showing barrier log only...

Root barrier log...

Ordering time: 0.35s

Barrier statistics:
 AA' NZ     : 3.639e+05
 Factor NZ  : 8.501e+05 (roughly 70 MB of memory)
 Factor Ops : 2.764e+08 (less than 1 second per iteration)
 Threads    : 1

                  Objective                Residual
Iter       Primal          Dual         Primal    Dual     Compl     Time
   0  -1.91450827e+15  2.57340477e+13  7.48e+08 5.80e+05  9.24e+10     6s
   1  -4.45705007e+14  2.07458126e+13  1.76e+08 1.60e+05  2.19e+10     6s
   2  -4.47875582e+13  9.86771042e+12  1.77e+07 1.86e-09  2.25e+09     6s
   3  -9.99140715e+11  4.28864430e+12  3.94e+05 1.63e-09  6.34e+07     6s
   4  -8.88280910e+10  5.69924048e+11  3.52e+04 1.86e-09  6.25e+06     7s
   5  -2.91060642e+10  4.32257691e+11  1.17e+04 1.63e-09  2.88e+06     7s
   6  -1.77923907e+10  2.34185339e+11  7.28e+03 2.61e-08  1.60e+06     7s
   7  -1.12071400e+10  1.68711265e+11  4.70e+03 2.27e-08  1.04e+06     7s
   8  -3.69624454e+09  7.99499875e+10  1.75e+03 1.98e-08  4.14e+05     7s
   9  -1.27463672e+09  3.35588370e+10  8.04e+02 1.07e-08  1.64e+05     7s
  10   4.73861201e+08  8.06577442e+09  1.22e+02 6.81e-09  3.09e+04     8s
  11   6.88134052e+08  1.96078386e+09  3.91e+01 2.18e-09  5.74e+03     8s
  12   7.20133602e+08  1.76202202e+09  2.70e+01 2.32e-09  4.53e+03     8s
  13   7.59503556e+08  1.42447070e+09  1.17e+01 4.55e-09  2.71e+03     8s
  14   7.73489400e+08  1.28521908e+09  6.13e+00 4.46e-09  1.97e+03     8s
  15   7.75575684e+08  1.11168835e+09  5.31e+00 4.63e-09  1.32e+03     8s
  16   7.77551091e+08  9.88805656e+08  4.58e+00 3.35e-09  8.51e+02     9s
  17   7.80981948e+08  9.57774831e+08  3.40e+00 2.81e-09  6.91e+02     9s
  18   7.87532175e+08  8.86491199e+08  1.22e+00 2.02e-09  3.58e+02     9s
  19   7.92318105e+08  8.30867047e+08  2.90e-01 1.17e-09  1.33e+02     9s
  20   7.93415020e+08  8.23731770e+08  2.07e-01 1.26e-09  1.04e+02     9s
  21   7.94514097e+08  8.23145317e+08  1.44e-01 1.30e-09  9.79e+01     9s
  22   7.95395804e+08  8.18521584e+08  1.02e-01 1.29e-09  7.89e+01    10s
  23   7.96301924e+08  8.12456696e+08  8.04e-02 1.17e-09  5.50e+01    10s
  24   7.97138204e+08  8.10010392e+08  6.20e-02 1.25e-09  4.37e+01    10s
  25   7.97847259e+08  8.08722251e+08  4.88e-02 1.36e-09  3.69e+01    10s
  26   7.98719557e+08  8.06747571e+08  3.57e-02 1.19e-09  2.72e+01    11s
  27   7.99064932e+08  8.05632785e+08  3.21e-02 1.07e-09  2.23e+01    11s
  28   7.99599054e+08  8.05185562e+08  2.59e-02 1.33e-09  1.89e+01    11s
  29   8.00109815e+08  8.04524612e+08  2.05e-02 1.06e-09  1.50e+01    11s
  30   8.00730372e+08  8.04000669e+08  1.44e-02 9.58e-10  1.11e+01    11s
  31   8.01073861e+08  8.03718512e+08  1.16e-02 1.20e-09  8.96e+00    12s
  32   8.01488769e+08  8.03345655e+08  8.27e-03 1.02e-09  6.29e+00    12s
  33   8.01877597e+08  8.03174296e+08  5.26e-03 1.09e-09  4.39e+00    12s
  34   8.02003172e+08  8.02976897e+08  4.34e-03 9.60e-10  3.30e+00    12s
  35   8.02149703e+08  8.02839133e+08  3.29e-03 9.48e-10  2.33e+00    12s
  36   8.02242915e+08  8.02750430e+08  2.61e-03 8.71e-10  1.72e+00    13s
  37   8.02343151e+08  8.02739907e+08  1.90e-03 9.31e-10  1.34e+00    13s
  38   8.02441383e+08  8.02687567e+08  1.20e-03 9.64e-10  8.34e-01    13s
  39   8.02514327e+08  8.02658366e+08  6.80e-04 1.03e-09  4.88e-01    13s
  40   8.02569087e+08  8.02639596e+08  3.07e-04 9.42e-10  2.39e-01    13s
  41   8.02589069e+08  8.02632551e+08  1.68e-04 1.00e-09  1.47e-01    14s
  42   8.02599455e+08  8.02623775e+08  9.76e-05 1.01e-09  8.24e-02    14s
  43   8.02608849e+08  8.02620761e+08  3.67e-05 8.71e-10  4.04e-02    14s
  44   8.02612669e+08  8.02615777e+08  1.27e-05 9.98e-10  1.05e-02    14s
  45   8.02614413e+08  8.02615277e+08  2.37e-06 8.89e-10  2.93e-03    14s
  46   8.02614742e+08  8.02614969e+08  6.81e-07 9.46e-10  7.71e-04    14s
  47   8.02614854e+08  8.02614910e+08  8.90e-08 9.67e-10  1.90e-04    15s
  48   8.02614864e+08  8.02614867e+08  1.35e-08 1.21e-09  1.09e-05    15s
  49   8.02614867e+08  8.02614867e+08  7.38e-09 1.22e-09  2.64e-08    15s
  50   8.02614867e+08  8.02614867e+08  3.11e-10 1.47e-09  2.32e-11    15s

Barrier solved model in 50 iterations and 15.04 seconds (11.74 work units)
Optimal objective 8.02614867e+08


Root crossover log...

    5194 DPushes remaining with DInf 0.0000000e+00                15s
       0 DPushes remaining with DInf 0.0000000e+00                15s

     488 PPushes remaining with PInf 0.0000000e+00                15s
       0 PPushes remaining with PInf 0.0000000e+00                15s

  Push phase complete: Pinf 0.0000000e+00, Dinf 2.1762474e-08     15s


Root simplex log...

Iteration    Objective       Primal Inf.    Dual Inf.      Time
    5658    8.0261487e+08   0.000000e+00   0.000000e+00     15s
Concurrent spin time: 0.00s

Solved with barrier
    5658    8.0261487e+08   0.000000e+00   0.000000e+00     16s

Root relaxation: objective 8.026149e+08, 5658 iterations, 10.74 seconds (4.92 work units)

    Nodes    |    Current Node    |     Objective Bounds      |     Work
 Expl Unexpl |  Obj  Depth IntInf | Incumbent    BestBd   Gap | It/Node Time

     0     0 8.0261e+08    0  454          - 8.0261e+08      -     -   16s
     0     0 8.0259e+08    0  482          - 8.0259e+08      -     -   43s
     0     0 8.0259e+08    0  454          - 8.0259e+08      -     -   46s
     0     0 8.0258e+08    0  443          - 8.0258e+08      -     -   47s
     0     0 8.0258e+08    0  443          - 8.0258e+08      -     -   47s
     0     0 8.0258e+08    0  441          - 8.0258e+08      -     -   50s
     0     0 8.0258e+08    0  443          - 8.0258e+08      -     -   51s
     0     0 8.0258e+08    0  466          - 8.0258e+08      -     -   53s
     0     0 8.0258e+08    0  467          - 8.0258e+08      -     -   54s
     0     0 8.0258e+08    0  468          - 8.0258e+08      -     -   54s
     0     0 8.0258e+08    0  470          - 8.0258e+08      -     -   55s
     0     0 8.0258e+08    0  471          - 8.0258e+08      -     -   56s
     0     0 8.0258e+08    0  462          - 8.0258e+08      -     -   57s
     0     0 8.0258e+08    0  468          - 8.0258e+08      -     -   57s
     0     0 8.0258e+08    0  468          - 8.0258e+08      -     -   58s
     0     0 8.0258e+08    0  466          - 8.0258e+08      -     -   59s
     0     0 8.0258e+08    0  467          - 8.0258e+08      -     -   60s
     0     0 8.0258e+08    0  465          - 8.0258e+08      -     -   61s
     0     0 8.0258e+08    0  466          - 8.0258e+08      -     -   62s
     0     0 8.0258e+08    0  466          - 8.0258e+08      -     -   63s
     0     0 8.0258e+08    0  467          - 8.0258e+08      -     -   63s
     0     0 8.0258e+08    0  467          - 8.0258e+08      -     -   64s
     0     0 8.0258e+08    0  460          - 8.0258e+08      -     -   65s
H    0     0                    7.858660e+08 8.0258e+08  2.13%     -   83s

Cutting planes:
  Implied bound: 2
  MIR: 6
  Flow cover: 12
  Zero half: 3
  RLT: 2

Explored 1 nodes (9601 simplex iterations) in 86.75 seconds (65.53 work units)
Thread count was 8 (of 8 available processors)

Solution count 1: 7.85866e+08 

Solve interrupted
Best objective 7.858659956587e+08, best bound 8.025772792128e+08, gap 2.1265%
